109962
2
75
0
1
23
22
21
25
24
46
45
44
48
47
69
68
70
67
50
49
52
55
56
51
66
65
71
72
73
64
63
57
62
61
58
59
60
41
40
39
38
34
35
32
33
42
54
53
43
28
27
26
29
30
31
19
20
5
10
9
12
11
17
18
36
37
16
15
13
14
74
8
7
6
4
3
